
Gurobi 9.1.0 (win64) logging started Sat Dec 12 22:34:25 2020

Changed value of parameter LogFile to logs/iteration7
   Prev:   Default: 
Gurobi Optimizer version 9.1.0 build v9.1.0rc0 (win64)
Thread count: 4 physical cores, 8 logical processors, using up to 8 threads
Optimize a model with 136 rows, 436 columns and 1636 nonzeros
Model fingerprint: 0x47825c16
Coefficient statistics:
  Matrix range     [1e+00, 1e+00]
  Objective range  [1e+03, 4e+03]
  Bounds range     [0e+00, 0e+00]
  RHS range        [1e+00, 1e+00]
Presolve removed 53 rows and 53 columns
Presolve time: 0.00s
Presolved: 83 rows, 383 columns, 1581 nonzeros

Iteration    Objective       Primal Inf.    Dual Inf.      Time
       0    1.0639008e+05   6.500000e+01   0.000000e+00      0s
     112    1.3756617e+05   0.000000e+00   0.000000e+00      0s

Solved in 112 iterations and 0.00 seconds
Optimal objective  1.375661667e+05

Solutionx[8] 1.000000 
x[10] 1.000000 
x[13] 1.000000 
x[14] 1.000000 
x[24] 1.000000 
x[26] 1.000000 
x[27] 1.000000 
x[28] 1.000000 
x[29] 1.000000 
x[35] 1.000000 
x[36] 1.000000 
x[52] 1.000000 
x[54] 1.000000 
x[55] 1.000000 
x[57] 1.000000 
x[58] 1.000000 
x[61] 1.000000 
x[63] 1.000000 
x[64] 1.000000 
x[65] 1.000000 
x[66] 1.000000 
x[68] 1.000000 
x[70] 1.000000 
x[71] 1.000000 
x[72] 1.000000 
x[74] 1.000000 
x[75] 1.000000 
x[76] 1.000000 
x[77] 1.000000 
x[78] 1.000000 
x[82] 1.000000 
x[83] 1.000000 
x[87] 1.000000 
x[89] 1.000000 
x[90] 1.000000 
x[92] 1.000000 
x[93] 1.000000 
x[96] 1.000000 
x[97] 1.000000 
x[99] 1.000000 
x[100] 1.000000 
x[101] 1.000000 
x[102] 1.000000 
x[103] 1.000000 
x[104] 1.000000 
x[105] 1.000000 
x[107] 1.000000 
x[108] 1.000000 
x[111] 1.000000 
x[112] 1.000000 
x[113] 1.000000 
x[114] 1.000000 
x[116] 1.000000 
x[117] 1.000000 
x[118] 1.000000 
x[120] 1.000000 
x[121] 1.000000 
x[122] 1.000000 
x[123] 1.000000 
x[124] 1.000000 
x[125] 1.000000 
x[126] 1.000000 
x[127] 1.000000 
x[128] 1.000000 
x[129] 1.000000 
x[130] 1.000000 
x[131] 1.000000 
x[132] 1.000000 
x[133] 1.000000 
x[134] 1.000000 
x[135] 1.000000 
x[264] 1.000000 
x[906] 1.000000 
x[2455] 1.000000 
x[4039] 1.000000 
x[20743] 1.000000 
x[9961] 1.000000 
x[8411] 1.000000 
x[31580] 1.000000 
x[1033] 1.000000 
x[1106] 1.000000 
x[10406] 1.000000 
x[19984] 1.000000 
x[4949] 1.000000 

Gurobi 9.1.0 (win64) logging started Sun Dec 13 15:16:43 2020

Changed value of parameter LogFile to logs/iteration7
   Prev:   Default: 
Gurobi Optimizer version 9.1.0 build v9.1.0rc0 (win64)
Thread count: 4 physical cores, 8 logical processors, using up to 8 threads
Optimize a model with 136 rows, 436 columns and 1636 nonzeros
Model fingerprint: 0x47825c16
Coefficient statistics:
  Matrix range     [1e+00, 1e+00]
  Objective range  [1e+03, 4e+03]
  Bounds range     [0e+00, 0e+00]
  RHS range        [1e+00, 1e+00]
Presolve removed 53 rows and 53 columns
Presolve time: 0.00s
Presolved: 83 rows, 383 columns, 1581 nonzeros

Iteration    Objective       Primal Inf.    Dual Inf.      Time
       0    1.0639008e+05   6.500000e+01   0.000000e+00      0s
     112    1.3756617e+05   0.000000e+00   0.000000e+00      0s

Solved in 112 iterations and 0.00 seconds
Optimal objective  1.375661667e+05

Solutionx[8] 1.000000 
x[10] 1.000000 
x[13] 1.000000 
x[14] 1.000000 
x[24] 1.000000 
x[26] 1.000000 
x[27] 1.000000 
x[28] 1.000000 
x[29] 1.000000 
x[35] 1.000000 
x[36] 1.000000 
x[52] 1.000000 
x[54] 1.000000 
x[55] 1.000000 
x[57] 1.000000 
x[58] 1.000000 
x[61] 1.000000 
x[63] 1.000000 
x[64] 1.000000 
x[65] 1.000000 
x[66] 1.000000 
x[68] 1.000000 
x[70] 1.000000 
x[71] 1.000000 
x[72] 1.000000 
x[74] 1.000000 
x[75] 1.000000 
x[76] 1.000000 
x[77] 1.000000 
x[78] 1.000000 
x[82] 1.000000 
x[83] 1.000000 
x[87] 1.000000 
x[89] 1.000000 
x[90] 1.000000 
x[92] 1.000000 
x[93] 1.000000 
x[96] 1.000000 
x[97] 1.000000 
x[99] 1.000000 
x[100] 1.000000 
x[101] 1.000000 
x[102] 1.000000 
x[103] 1.000000 
x[104] 1.000000 
x[105] 1.000000 
x[107] 1.000000 
x[108] 1.000000 
x[111] 1.000000 
x[112] 1.000000 
x[113] 1.000000 
x[114] 1.000000 
x[116] 1.000000 
x[117] 1.000000 
x[118] 1.000000 
x[120] 1.000000 
x[121] 1.000000 
x[122] 1.000000 
x[123] 1.000000 
x[124] 1.000000 
x[125] 1.000000 
x[126] 1.000000 
x[127] 1.000000 
x[128] 1.000000 
x[129] 1.000000 
x[130] 1.000000 
x[131] 1.000000 
x[132] 1.000000 
x[133] 1.000000 
x[134] 1.000000 
x[135] 1.000000 
x[264] 1.000000 
x[906] 1.000000 
x[2455] 1.000000 
x[4039] 1.000000 
x[20743] 1.000000 
x[9961] 1.000000 
x[8411] 1.000000 
x[31580] 1.000000 
x[1033] 1.000000 
x[1106] 1.000000 
x[10406] 1.000000 
x[19984] 1.000000 
x[4949] 1.000000 

Gurobi 9.1.0 (win64) logging started Sun Dec 13 15:18:30 2020

Changed value of parameter LogFile to logs/iteration7
   Prev:   Default: 
Gurobi Optimizer version 9.1.0 build v9.1.0rc0 (win64)
Thread count: 4 physical cores, 8 logical processors, using up to 8 threads
Optimize a model with 136 rows, 436 columns and 1636 nonzeros
Model fingerprint: 0x47825c16
Coefficient statistics:
  Matrix range     [1e+00, 1e+00]
  Objective range  [1e+03, 4e+03]
  Bounds range     [0e+00, 0e+00]
  RHS range        [1e+00, 1e+00]
Presolve removed 53 rows and 53 columns
Presolve time: 0.00s
Presolved: 83 rows, 383 columns, 1581 nonzeros

Iteration    Objective       Primal Inf.    Dual Inf.      Time
       0    1.0639008e+05   6.500000e+01   0.000000e+00      0s
     112    1.3756617e+05   0.000000e+00   0.000000e+00      0s

Solved in 112 iterations and 0.00 seconds
Optimal objective  1.375661667e+05

Solutionx[8] 1.000000 
x[10] 1.000000 
x[13] 1.000000 
x[14] 1.000000 
x[24] 1.000000 
x[26] 1.000000 
x[27] 1.000000 
x[28] 1.000000 
x[29] 1.000000 
x[35] 1.000000 
x[36] 1.000000 
x[52] 1.000000 
x[54] 1.000000 
x[55] 1.000000 
x[57] 1.000000 
x[58] 1.000000 
x[61] 1.000000 
x[63] 1.000000 
x[64] 1.000000 
x[65] 1.000000 
x[66] 1.000000 
x[68] 1.000000 
x[70] 1.000000 
x[71] 1.000000 
x[72] 1.000000 
x[74] 1.000000 
x[75] 1.000000 
x[76] 1.000000 
x[77] 1.000000 
x[78] 1.000000 
x[82] 1.000000 
x[83] 1.000000 
x[87] 1.000000 
x[89] 1.000000 
x[90] 1.000000 
x[92] 1.000000 
x[93] 1.000000 
x[96] 1.000000 
x[97] 1.000000 
x[99] 1.000000 
x[100] 1.000000 
x[101] 1.000000 
x[102] 1.000000 
x[103] 1.000000 
x[104] 1.000000 
x[105] 1.000000 
x[107] 1.000000 
x[108] 1.000000 
x[111] 1.000000 
x[112] 1.000000 
x[113] 1.000000 
x[114] 1.000000 
x[116] 1.000000 
x[117] 1.000000 
x[118] 1.000000 
x[120] 1.000000 
x[121] 1.000000 
x[122] 1.000000 
x[123] 1.000000 
x[124] 1.000000 
x[125] 1.000000 
x[126] 1.000000 
x[127] 1.000000 
x[128] 1.000000 
x[129] 1.000000 
x[130] 1.000000 
x[131] 1.000000 
x[132] 1.000000 
x[133] 1.000000 
x[134] 1.000000 
x[135] 1.000000 
x[264] 1.000000 
x[906] 1.000000 
x[2455] 1.000000 
x[4039] 1.000000 
x[20743] 1.000000 
x[9961] 1.000000 
x[8411] 1.000000 
x[31580] 1.000000 
x[1033] 1.000000 
x[1106] 1.000000 
x[10406] 1.000000 
x[19984] 1.000000 
x[4949] 1.000000 

Gurobi 9.1.0 (win64) logging started Sun Dec 13 15:22:05 2020

Changed value of parameter LogFile to logs/iteration7
   Prev:   Default: 
Gurobi Optimizer version 9.1.0 build v9.1.0rc0 (win64)
Thread count: 4 physical cores, 8 logical processors, using up to 8 threads
Optimize a model with 136 rows, 436 columns and 1636 nonzeros
Model fingerprint: 0x47825c16
Coefficient statistics:
  Matrix range     [1e+00, 1e+00]
  Objective range  [1e+03, 4e+03]
  Bounds range     [0e+00, 0e+00]
  RHS range        [1e+00, 1e+00]
Presolve removed 53 rows and 53 columns
Presolve time: 0.00s
Presolved: 83 rows, 383 columns, 1581 nonzeros

Iteration    Objective       Primal Inf.    Dual Inf.      Time
       0    1.0639008e+05   6.500000e+01   0.000000e+00      0s
     112    1.3756617e+05   0.000000e+00   0.000000e+00      0s

Solved in 112 iterations and 0.00 seconds
Optimal objective  1.375661667e+05

Solutionx[8] 1.000000 
x[10] 1.000000 
x[13] 1.000000 
x[14] 1.000000 
x[24] 1.000000 
x[26] 1.000000 
x[27] 1.000000 
x[28] 1.000000 
x[29] 1.000000 
x[35] 1.000000 
x[36] 1.000000 
x[52] 1.000000 
x[54] 1.000000 
x[55] 1.000000 
x[57] 1.000000 
x[58] 1.000000 
x[61] 1.000000 
x[63] 1.000000 
x[64] 1.000000 
x[65] 1.000000 
x[66] 1.000000 
x[68] 1.000000 
x[70] 1.000000 
x[71] 1.000000 
x[72] 1.000000 
x[74] 1.000000 
x[75] 1.000000 
x[76] 1.000000 
x[77] 1.000000 
x[78] 1.000000 
x[82] 1.000000 
x[83] 1.000000 
x[87] 1.000000 
x[89] 1.000000 
x[90] 1.000000 
x[92] 1.000000 
x[93] 1.000000 
x[96] 1.000000 
x[97] 1.000000 
x[99] 1.000000 
x[100] 1.000000 
x[101] 1.000000 
x[102] 1.000000 
x[103] 1.000000 
x[104] 1.000000 
x[105] 1.000000 
x[107] 1.000000 
x[108] 1.000000 
x[111] 1.000000 
x[112] 1.000000 
x[113] 1.000000 
x[114] 1.000000 
x[116] 1.000000 
x[117] 1.000000 
x[118] 1.000000 
x[120] 1.000000 
x[121] 1.000000 
x[122] 1.000000 
x[123] 1.000000 
x[124] 1.000000 
x[125] 1.000000 
x[126] 1.000000 
x[127] 1.000000 
x[128] 1.000000 
x[129] 1.000000 
x[130] 1.000000 
x[131] 1.000000 
x[132] 1.000000 
x[133] 1.000000 
x[134] 1.000000 
x[135] 1.000000 
x[264] 1.000000 
x[906] 1.000000 
x[2455] 1.000000 
x[4039] 1.000000 
x[20743] 1.000000 
x[9961] 1.000000 
x[8411] 1.000000 
x[31580] 1.000000 
x[1033] 1.000000 
x[1106] 1.000000 
x[10406] 1.000000 
x[19984] 1.000000 
x[4949] 1.000000 

Gurobi 9.1.0 (win64) logging started Sun Dec 13 15:26:08 2020

Changed value of parameter LogFile to logs/iteration7
   Prev:   Default: 
Gurobi Optimizer version 9.1.0 build v9.1.0rc0 (win64)
Thread count: 4 physical cores, 8 logical processors, using up to 8 threads
Optimize a model with 136 rows, 436 columns and 1636 nonzeros
Model fingerprint: 0x47825c16
Coefficient statistics:
  Matrix range     [1e+00, 1e+00]
  Objective range  [1e+03, 4e+03]
  Bounds range     [0e+00, 0e+00]
  RHS range        [1e+00, 1e+00]
Presolve removed 53 rows and 53 columns
Presolve time: 0.00s
Presolved: 83 rows, 383 columns, 1581 nonzeros

Iteration    Objective       Primal Inf.    Dual Inf.      Time
       0    1.0639008e+05   6.500000e+01   0.000000e+00      0s
     112    1.3756617e+05   0.000000e+00   0.000000e+00      0s

Solved in 112 iterations and 0.00 seconds
Optimal objective  1.375661667e+05

Solutionx[8] 1.000000 
x[10] 1.000000 
x[13] 1.000000 
x[14] 1.000000 
x[24] 1.000000 
x[26] 1.000000 
x[27] 1.000000 
x[28] 1.000000 
x[29] 1.000000 
x[35] 1.000000 
x[36] 1.000000 
x[52] 1.000000 
x[54] 1.000000 
x[55] 1.000000 
x[57] 1.000000 
x[58] 1.000000 
x[61] 1.000000 
x[63] 1.000000 
x[64] 1.000000 
x[65] 1.000000 
x[66] 1.000000 
x[68] 1.000000 
x[70] 1.000000 
x[71] 1.000000 
x[72] 1.000000 
x[74] 1.000000 
x[75] 1.000000 
x[76] 1.000000 
x[77] 1.000000 
x[78] 1.000000 
x[82] 1.000000 
x[83] 1.000000 
x[87] 1.000000 
x[89] 1.000000 
x[90] 1.000000 
x[92] 1.000000 
x[93] 1.000000 
x[96] 1.000000 
x[97] 1.000000 
x[99] 1.000000 
x[100] 1.000000 
x[101] 1.000000 
x[102] 1.000000 
x[103] 1.000000 
x[104] 1.000000 
x[105] 1.000000 
x[107] 1.000000 
x[108] 1.000000 
x[111] 1.000000 
x[112] 1.000000 
x[113] 1.000000 
x[114] 1.000000 
x[116] 1.000000 
x[117] 1.000000 
x[118] 1.000000 
x[120] 1.000000 
x[121] 1.000000 
x[122] 1.000000 
x[123] 1.000000 
x[124] 1.000000 
x[125] 1.000000 
x[126] 1.000000 
x[127] 1.000000 
x[128] 1.000000 
x[129] 1.000000 
x[130] 1.000000 
x[131] 1.000000 
x[132] 1.000000 
x[133] 1.000000 
x[134] 1.000000 
x[135] 1.000000 
x[264] 1.000000 
x[906] 1.000000 
x[2455] 1.000000 
x[4039] 1.000000 
x[20743] 1.000000 
x[9961] 1.000000 
x[8411] 1.000000 
x[31580] 1.000000 
x[1033] 1.000000 
x[1106] 1.000000 
x[10406] 1.000000 
x[19984] 1.000000 
x[4949] 1.000000 

Gurobi 9.1.0 (win64) logging started Sun Dec 13 13:24:43 2020

Changed value of parameter LogFile to logs/iteration7
   Prev:   Default: 
Gurobi Optimizer version 9.1.0 build v9.1.0rc0 (win64)
Thread count: 4 physical cores, 8 logical processors, using up to 8 threads
Optimize a model with 136 rows, 436 columns and 1636 nonzeros
Model fingerprint: 0x47825c16
Coefficient statistics:
  Matrix range     [1e+00, 1e+00]
  Objective range  [1e+03, 4e+03]
  Bounds range     [0e+00, 0e+00]
  RHS range        [1e+00, 1e+00]
Presolve removed 53 rows and 53 columns
Presolve time: 0.00s
Presolved: 83 rows, 383 columns, 1581 nonzeros

Iteration    Objective       Primal Inf.    Dual Inf.      Time
       0    1.0639008e+05   6.500000e+01   0.000000e+00      0s
     112    1.3756617e+05   0.000000e+00   0.000000e+00      0s

Solved in 112 iterations and 0.00 seconds
Optimal objective  1.375661667e+05

Solutionx[8] 1.000000 
x[10] 1.000000 
x[13] 1.000000 
x[14] 1.000000 
x[24] 1.000000 
x[26] 1.000000 
x[27] 1.000000 
x[28] 1.000000 
x[29] 1.000000 
x[35] 1.000000 
x[36] 1.000000 
x[52] 1.000000 
x[54] 1.000000 
x[55] 1.000000 
x[57] 1.000000 
x[58] 1.000000 
x[61] 1.000000 
x[63] 1.000000 
x[64] 1.000000 
x[65] 1.000000 
x[66] 1.000000 
x[68] 1.000000 
x[70] 1.000000 
x[71] 1.000000 
x[72] 1.000000 
x[74] 1.000000 
x[75] 1.000000 
x[76] 1.000000 
x[77] 1.000000 
x[78] 1.000000 
x[82] 1.000000 
x[83] 1.000000 
x[87] 1.000000 
x[89] 1.000000 
x[90] 1.000000 
x[92] 1.000000 
x[93] 1.000000 
x[96] 1.000000 
x[97] 1.000000 
x[99] 1.000000 
x[100] 1.000000 
x[101] 1.000000 
x[102] 1.000000 
x[103] 1.000000 
x[104] 1.000000 
x[105] 1.000000 
x[107] 1.000000 
x[108] 1.000000 
x[111] 1.000000 
x[112] 1.000000 
x[113] 1.000000 
x[114] 1.000000 
x[116] 1.000000 
x[117] 1.000000 
x[118] 1.000000 
x[120] 1.000000 
x[121] 1.000000 
x[122] 1.000000 
x[123] 1.000000 
x[124] 1.000000 
x[125] 1.000000 
x[126] 1.000000 
x[127] 1.000000 
x[128] 1.000000 
x[129] 1.000000 
x[130] 1.000000 
x[131] 1.000000 
x[132] 1.000000 
x[133] 1.000000 
x[134] 1.000000 
x[135] 1.000000 
x[264] 1.000000 
x[906] 1.000000 
x[2455] 1.000000 
x[4039] 1.000000 
x[20743] 1.000000 
x[9961] 1.000000 
x[8411] 1.000000 
x[31580] 1.000000 
x[1033] 1.000000 
x[1106] 1.000000 
x[10406] 1.000000 
x[19984] 1.000000 
x[4949] 1.000000 
